logs/drand/ip/drand-07-110-0.lp
\ LP format - for model browsing. Use MPS format to capture full model detail.
Minimize
  z0 + z1 + z2 + z3 + z4 + z5 + z6 + z7
Subject To
 R0: x0,1_12 + x0,1_47 + x0,1_48 + x0,1_52 + x0,1_56 + x0,1_70 + x0,1_103
   - z1 <= 0
 R1: x0,2_12 + x0,2_47 + x0,2_48 + x0,2_52 + x0,2_56 + x0,2_70 + x0,2_103
   - z2 <= 0
 R2: x0,3_12 + x0,3_47 + x0,3_48 + x0,3_52 + x0,3_56 + x0,3_70 + x0,3_103
   - z3 <= 0
 R3: x0,4_12 + x0,4_47 + x0,4_48 + x0,4_52 + x0,4_56 + x0,4_70 + x0,4_103
   - z4 <= 0
 R4: x0,5_12 + x0,5_47 + x0,5_48 + x0,5_52 + x0,5_56 + x0,5_70 + x0,5_103
   - z5 <= 0
 R5: x0,6_12 + x0,6_47 + x0,6_48 + x0,6_52 + x0,6_56 + x0,6_70 + x0,6_103
   - z6 <= 0
 R6: x0,7_12 + x0,7_47 + x0,7_48 + x0,7_52 + x0,7_56 + x0,7_70 + x0,7_103
   - z7 <= 0
 R7: x1,2_12 + x1,2_47 + x1,2_48 + x1,2_52 + x1,2_56 + x1,2_70 + x1,2_103
   - z2 <= 0
 R8: x1,3_12 + x1,3_47 + x1,3_48 + x1,3_52 + x1,3_56 + x1,3_70 + x1,3_103
   - z3 <= 0
 R9: x1,4_12 + x1,4_47 + x1,4_48 + x1,4_52 + x1,4_56 + x1,4_70 + x1,4_103
   - z4 <= 0
 R10: x1,5_12 + x1,5_47 + x1,5_48 + x1,5_52 + x1,5_56 + x1,5_70 + x1,5_103
   - z5 <= 0
 R11: x1,6_12 + x1,6_47 + x1,6_48 + x1,6_52 + x1,6_56 + x1,6_70 + x1,6_103
   - z6 <= 0
 R12: x1,7_12 + x1,7_47 + x1,7_48 + x1,7_52 + x1,7_56 + x1,7_70 + x1,7_103
   - z7 <= 0
 R13: x2,3_12 + x2,3_47 + x2,3_48 + x2,3_52 + x2,3_56 + x2,3_70 + x2,3_103
   - z3 <= 0
 R14: x2,4_12 + x2,4_47 + x2,4_48 + x2,4_52 + x2,4_56 + x2,4_70 + x2,4_103
   - z4 <= 0
 R15: x2,5_12 + x2,5_47 + x2,5_48 + x2,5_52 + x2,5_56 + x2,5_70 + x2,5_103
   - z5 <= 0
 R16: x2,6_12 + x2,6_47 + x2,6_48 + x2,6_52 + x2,6_56 + x2,6_70 + x2,6_103
   - z6 <= 0
 R17: x2,7_12 + x2,7_47 + x2,7_48 + x2,7_52 + x2,7_56 + x2,7_70 + x2,7_103
   - z7 <= 0
 R18: x3,4_12 + x3,4_47 + x3,4_48 + x3,4_52 + x3,4_56 + x3,4_70 + x3,4_103
   - z4 <= 0
 R19: x3,5_12 + x3,5_47 + x3,5_48 + x3,5_52 + x3,5_56 + x3,5_70 + x3,5_103
   - z5 <= 0
 R20: x3,6_12 + x3,6_47 + x3,6_48 + x3,6_52 + x3,6_56 + x3,6_70 + x3,6_103
   - z6 <= 0
 R21: x3,7_12 + x3,7_47 + x3,7_48 + x3,7_52 + x3,7_56 + x3,7_70 + x3,7_103
   - z7 <= 0
 R22: x4,5_12 + x4,5_47 + x4,5_48 + x4,5_52 + x4,5_56 + x4,5_70 + x4,5_103
   - z5 <= 0
 R23: x4,6_12 + x4,6_47 + x4,6_48 + x4,6_52 + x4,6_56 + x4,6_70 + x4,6_103
   - z6 <= 0
 R24: x4,7_12 + x4,7_47 + x4,7_48 + x4,7_52 + x4,7_56 + x4,7_70 + x4,7_103
   - z7 <= 0
 R25: x5,6_12 + x5,6_47 + x5,6_48 + x5,6_52 + x5,6_56 + x5,6_70 + x5,6_103
   - z6 <= 0
 R26: x5,7_12 + x5,7_47 + x5,7_48 + x5,7_52 + x5,7_56 + x5,7_70 + x5,7_103
   - z7 <= 0
 R27: x6,7_12 + x6,7_47 + x6,7_48 + x6,7_52 + x6,7_56 + x6,7_70 + x6,7_103
   - z7 <= 0
 R28: x0,1_12 + x0,2_12 + x0,3_12 + x0,4_12 + x0,5_12 + x0,6_12 + x0,7_12
   + x1,2_12 + x1,3_12 + x1,4_12 + x1,5_12 + x1,6_12 + x1,7_12 + x2,3_12
   + x2,4_12 + x2,5_12 + x2,6_12 + x2,7_12 + x3,4_12 + x3,5_12 + x3,6_12
   + x3,7_12 + x4,5_12 + x4,6_12 + x4,7_12 + x5,6_12 + x5,7_12 + x6,7_12
   = 1
 R29: x0,1_47 + x0,2_47 + x0,3_47 + x0,4_47 + x0,5_47 + x0,6_47 + x0,7_47
   + x1,2_47 + x1,3_47 + x1,4_47 + x1,5_47 + x1,6_47 + x1,7_47 + x2,3_47
   + x2,4_47 + x2,5_47 + x2,6_47 + x2,7_47 + x3,4_47 + x3,5_47 + x3,6_47
   + x3,7_47 + x4,5_47 + x4,6_47 + x4,7_47 + x5,6_47 + x5,7_47 + x6,7_47
   = 1
 R30: x0,1_48 + x0,2_48 + x0,3_48 + x0,4_48 + x0,5_48 + x0,6_48 + x0,7_48
   + x1,2_48 + x1,3_48 + x1,4_48 + x1,5_48 + x1,6_48 + x1,7_48 + x2,3_48
   + x2,4_48 + x2,5_48 + x2,6_48 + x2,7_48 + x3,4_48 + x3,5_48 + x3,6_48
   + x3,7_48 + x4,5_48 + x4,6_48 + x4,7_48 + x5,6_48 + x5,7_48 + x6,7_48
   = 1
 R31: x0,1_52 + x0,2_52 + x0,3_52 + x0,4_52 + x0,5_52 + x0,6_52 + x0,7_52
   + x1,2_52 + x1,3_52 + x1,4_52 + x1,5_52 + x1,6_52 + x1,7_52 + x2,3_52
   + x2,4_52 + x2,5_52 + x2,6_52 + x2,7_52 + x3,4_52 + x3,5_52 + x3,6_52
   + x3,7_52 + x4,5_52 + x4,6_52 + x4,7_52 + x5,6_52 + x5,7_52 + x6,7_52
   = 1
 R32: x0,1_56 + x0,2_56 + x0,3_56 + x0,4_56 + x0,5_56 + x0,6_56 + x0,7_56
   + x1,2_56 + x1,3_56 + x1,4_56 + x1,5_56 + x1,6_56 + x1,7_56 + x2,3_56
   + x2,4_56 + x2,5_56 + x2,6_56 + x2,7_56 + x3,4_56 + x3,5_56 + x3,6_56
   + x3,7_56 + x4,5_56 + x4,6_56 + x4,7_56 + x5,6_56 + x5,7_56 + x6,7_56
   = 1
 R33: x0,1_70 + x0,2_70 + x0,3_70 + x0,4_70 + x0,5_70 + x0,6_70 + x0,7_70
   + x1,2_70 + x1,3_70 + x1,4_70 + x1,5_70 + x1,6_70 + x1,7_70 + x2,3_70
   + x2,4_70 + x2,5_70 + x2,6_70 + x2,7_70 + x3,4_70 + x3,5_70 + x3,6_70
   + x3,7_70 + x4,5_70 + x4,6_70 + x4,7_70 + x5,6_70 + x5,7_70 + x6,7_70
   = 1
 R34: x0,1_103 + x0,2_103 + x0,3_103 + x0,4_103 + x0,5_103 + x0,6_103
   + x0,7_103 + x1,2_103 + x1,3_103 + x1,4_103 + x1,5_103 + x1,6_103
   + x1,7_103 + x2,3_103 + x2,4_103 + x2,5_103 + x2,6_103 + x2,7_103
   + x3,4_103 + x3,5_103 + x3,6_103 + x3,7_103 + x4,5_103 + x4,6_103
   + x4,7_103 + x5,6_103 + x5,7_103 + x6,7_103 = 1
 R35: p0 - p1 <= -1
 R36: - 12 x0,1_12 - p0 + p1 >= 0
 R37: 388 x0,1_12 - p0 + p1 <= 400
 R38: - 47 x0,1_47 - p0 + p1 >= 0
 R39: 388 x0,1_47 - p0 + p1 <= 435
 R40: - 48 x0,1_48 - p0 + p1 >= 0
 R41: 388 x0,1_48 - p0 + p1 <= 436
 R42: - 52 x0,1_52 - p0 + p1 >= 0
 R43: 388 x0,1_52 - p0 + p1 <= 440
 R44: - 56 x0,1_56 - p0 + p1 >= 0
 R45: 388 x0,1_56 - p0 + p1 <= 444
 R46: - 70 x0,1_70 - p0 + p1 >= 0
 R47: 388 x0,1_70 - p0 + p1 <= 458
 R48: - 103 x0,1_103 - p0 + p1 >= 0
 R49: 388 x0,1_103 - p0 + p1 <= 491
 R50: p0 - p2 <= -1
 R51: - 12 x0,2_12 - p0 + p2 >= 0
 R52: 388 x0,2_12 - p0 + p2 <= 400
 R53: - 47 x0,2_47 - p0 + p2 >= 0
 R54: 388 x0,2_47 - p0 + p2 <= 435
 R55: - 48 x0,2_48 - p0 + p2 >= 0
 R56: 388 x0,2_48 - p0 + p2 <= 436
 R57: - 52 x0,2_52 - p0 + p2 >= 0
 R58: 388 x0,2_52 - p0 + p2 <= 440
 R59: - 56 x0,2_56 - p0 + p2 >= 0
 R60: 388 x0,2_56 - p0 + p2 <= 444
 R61: - 70 x0,2_70 - p0 + p2 >= 0
 R62: 388 x0,2_70 - p0 + p2 <= 458
 R63: - 103 x0,2_103 - p0 + p2 >= 0
 R64: 388 x0,2_103 - p0 + p2 <= 491
 R65: p0 - p3 <= -1
 R66: - 12 x0,3_12 - p0 + p3 >= 0
 R67: 388 x0,3_12 - p0 + p3 <= 400
 R68: - 47 x0,3_47 - p0 + p3 >= 0
 R69: 388 x0,3_47 - p0 + p3 <= 435
 R70: - 48 x0,3_48 - p0 + p3 >= 0
 R71: 388 x0,3_48 - p0 + p3 <= 436
 R72: - 52 x0,3_52 - p0 + p3 >= 0
 R73: 388 x0,3_52 - p0 + p3 <= 440
 R74: - 56 x0,3_56 - p0 + p3 >= 0
 R75: 388 x0,3_56 - p0 + p3 <= 444
 R76: - 70 x0,3_70 - p0 + p3 >= 0
 R77: 388 x0,3_70 - p0 + p3 <= 458
 R78: - 103 x0,3_103 - p0 + p3 >= 0
 R79: 388 x0,3_103 - p0 + p3 <= 491
 R80: p0 - p4 <= -1
 R81: - 12 x0,4_12 - p0 + p4 >= 0
 R82: 388 x0,4_12 - p0 + p4 <= 400
 R83: - 47 x0,4_47 - p0 + p4 >= 0
 R84: 388 x0,4_47 - p0 + p4 <= 435
 R85: - 48 x0,4_48 - p0 + p4 >= 0
 R86: 388 x0,4_48 - p0 + p4 <= 436
 R87: - 52 x0,4_52 - p0 + p4 >= 0
 R88: 388 x0,4_52 - p0 + p4 <= 440
 R89: - 56 x0,4_56 - p0 + p4 >= 0
 R90: 388 x0,4_56 - p0 + p4 <= 444
 R91: - 70 x0,4_70 - p0 + p4 >= 0
 R92: 388 x0,4_70 - p0 + p4 <= 458
 R93: - 103 x0,4_103 - p0 + p4 >= 0
 R94: 388 x0,4_103 - p0 + p4 <= 491
 R95: p0 - p5 <= -1
 R96: - 12 x0,5_12 - p0 + p5 >= 0
 R97: 388 x0,5_12 - p0 + p5 <= 400
 R98: - 47 x0,5_47 - p0 + p5 >= 0
 R99: 388 x0,5_47 - p0 + p5 <= 435
 R100: - 48 x0,5_48 - p0 + p5 >= 0
 R101: 388 x0,5_48 - p0 + p5 <= 436
 R102: - 52 x0,5_52 - p0 + p5 >= 0
 R103: 388 x0,5_52 - p0 + p5 <= 440
 R104: - 56 x0,5_56 - p0 + p5 >= 0
 R105: 388 x0,5_56 - p0 + p5 <= 444
 R106: - 70 x0,5_70 - p0 + p5 >= 0
 R107: 388 x0,5_70 - p0 + p5 <= 458
 R108: - 103 x0,5_103 - p0 + p5 >= 0
 R109: 388 x0,5_103 - p0 + p5 <= 491
 R110: p0 - p6 <= -1
 R111: - 12 x0,6_12 - p0 + p6 >= 0
 R112: 388 x0,6_12 - p0 + p6 <= 400
 R113: - 47 x0,6_47 - p0 + p6 >= 0
 R114: 388 x0,6_47 - p0 + p6 <= 435
 R115: - 48 x0,6_48 - p0 + p6 >= 0
 R116: 388 x0,6_48 - p0 + p6 <= 436
 R117: - 52 x0,6_52 - p0 + p6 >= 0
 R118: 388 x0,6_52 - p0 + p6 <= 440
 R119: - 56 x0,6_56 - p0 + p6 >= 0
 R120: 388 x0,6_56 - p0 + p6 <= 444
 R121: - 70 x0,6_70 - p0 + p6 >= 0
 R122: 388 x0,6_70 - p0 + p6 <= 458
 R123: - 103 x0,6_103 - p0 + p6 >= 0
 R124: 388 x0,6_103 - p0 + p6 <= 491
 R125: p0 - p7 <= -1
 R126: - 12 x0,7_12 - p0 + p7 >= 0
 R127: 388 x0,7_12 - p0 + p7 <= 400
 R128: - 47 x0,7_47 - p0 + p7 >= 0
 R129: 388 x0,7_47 - p0 + p7 <= 435
 R130: - 48 x0,7_48 - p0 + p7 >= 0
 R131: 388 x0,7_48 - p0 + p7 <= 436
 R132: - 52 x0,7_52 - p0 + p7 >= 0
 R133: 388 x0,7_52 - p0 + p7 <= 440
 R134: - 56 x0,7_56 - p0 + p7 >= 0
 R135: 388 x0,7_56 - p0 + p7 <= 444
 R136: - 70 x0,7_70 - p0 + p7 >= 0
 R137: 388 x0,7_70 - p0 + p7 <= 458
 R138: - 103 x0,7_103 - p0 + p7 >= 0
 R139: 388 x0,7_103 - p0 + p7 <= 491
 R140: p1 - p2 <= -1
 R141: - 12 x1,2_12 - p1 + p2 >= 0
 R142: 388 x1,2_12 - p1 + p2 <= 400
 R143: - 47 x1,2_47 - p1 + p2 >= 0
 R144: 388 x1,2_47 - p1 + p2 <= 435
 R145: - 48 x1,2_48 - p1 + p2 >= 0
 R146: 388 x1,2_48 - p1 + p2 <= 436
 R147: - 52 x1,2_52 - p1 + p2 >= 0
 R148: 388 x1,2_52 - p1 + p2 <= 440
 R149: - 56 x1,2_56 - p1 + p2 >= 0
 R150: 388 x1,2_56 - p1 + p2 <= 444
 R151: - 70 x1,2_70 - p1 + p2 >= 0
 R152: 388 x1,2_70 - p1 + p2 <= 458
 R153: - 103 x1,2_103 - p1 + p2 >= 0
 R154: 388 x1,2_103 - p1 + p2 <= 491
 R155: p1 - p3 <= -1
 R156: - 12 x1,3_12 - p1 + p3 >= 0
 R157: 388 x1,3_12 - p1 + p3 <= 400
 R158: - 47 x1,3_47 - p1 + p3 >= 0
 R159: 388 x1,3_47 - p1 + p3 <= 435
 R160: - 48 x1,3_48 - p1 + p3 >= 0
 R161: 388 x1,3_48 - p1 + p3 <= 436
 R162: - 52 x1,3_52 - p1 + p3 >= 0
 R163: 388 x1,3_52 - p1 + p3 <= 440
 R164: - 56 x1,3_56 - p1 + p3 >= 0
 R165: 388 x1,3_56 - p1 + p3 <= 444
 R166: - 70 x1,3_70 - p1 + p3 >= 0
 R167: 388 x1,3_70 - p1 + p3 <= 458
 R168: - 103 x1,3_103 - p1 + p3 >= 0
 R169: 388 x1,3_103 - p1 + p3 <= 491
 R170: p1 - p4 <= -1
 R171: - 12 x1,4_12 - p1 + p4 >= 0
 R172: 388 x1,4_12 - p1 + p4 <= 400
 R173: - 47 x1,4_47 - p1 + p4 >= 0
 R174: 388 x1,4_47 - p1 + p4 <= 435
 R175: - 48 x1,4_48 - p1 + p4 >= 0
 R176: 388 x1,4_48 - p1 + p4 <= 436
 R177: - 52 x1,4_52 - p1 + p4 >= 0
 R178: 388 x1,4_52 - p1 + p4 <= 440
 R179: - 56 x1,4_56 - p1 + p4 >= 0
 R180: 388 x1,4_56 - p1 + p4 <= 444
 R181: - 70 x1,4_70 - p1 + p4 >= 0
 R182: 388 x1,4_70 - p1 + p4 <= 458
 R183: - 103 x1,4_103 - p1 + p4 >= 0
 R184: 388 x1,4_103 - p1 + p4 <= 491
 R185: p1 - p5 <= -1
 R186: - 12 x1,5_12 - p1 + p5 >= 0
 R187: 388 x1,5_12 - p1 + p5 <= 400
 R188: - 47 x1,5_47 - p1 + p5 >= 0
 R189: 388 x1,5_47 - p1 + p5 <= 435
 R190: - 48 x1,5_48 - p1 + p5 >= 0
 R191: 388 x1,5_48 - p1 + p5 <= 436
 R192: - 52 x1,5_52 - p1 + p5 >= 0
 R193: 388 x1,5_52 - p1 + p5 <= 440
 R194: - 56 x1,5_56 - p1 + p5 >= 0
 R195: 388 x1,5_56 - p1 + p5 <= 444
 R196: - 70 x1,5_70 - p1 + p5 >= 0
 R197: 388 x1,5_70 - p1 + p5 <= 458
 R198: - 103 x1,5_103 - p1 + p5 >= 0
 R199: 388 x1,5_103 - p1 + p5 <= 491
 R200: p1 - p6 <= -1
 R201: - 12 x1,6_12 - p1 + p6 >= 0
 R202: 388 x1,6_12 - p1 + p6 <= 400
 R203: - 47 x1,6_47 - p1 + p6 >= 0
 R204: 388 x1,6_47 - p1 + p6 <= 435
 R205: - 48 x1,6_48 - p1 + p6 >= 0
 R206: 388 x1,6_48 - p1 + p6 <= 436
 R207: - 52 x1,6_52 - p1 + p6 >= 0
 R208: 388 x1,6_52 - p1 + p6 <= 440
 R209: - 56 x1,6_56 - p1 + p6 >= 0
 R210: 388 x1,6_56 - p1 + p6 <= 444
 R211: - 70 x1,6_70 - p1 + p6 >= 0
 R212: 388 x1,6_70 - p1 + p6 <= 458
 R213: - 103 x1,6_103 - p1 + p6 >= 0
 R214: 388 x1,6_103 - p1 + p6 <= 491
 R215: p1 - p7 <= -1
 R216: - 12 x1,7_12 - p1 + p7 >= 0
 R217: 388 x1,7_12 - p1 + p7 <= 400
 R218: - 47 x1,7_47 - p1 + p7 >= 0
 R219: 388 x1,7_47 - p1 + p7 <= 435
 R220: - 48 x1,7_48 - p1 + p7 >= 0
 R221: 388 x1,7_48 - p1 + p7 <= 436
 R222: - 52 x1,7_52 - p1 + p7 >= 0
 R223: 388 x1,7_52 - p1 + p7 <= 440
 R224: - 56 x1,7_56 - p1 + p7 >= 0
 R225: 388 x1,7_56 - p1 + p7 <= 444
 R226: - 70 x1,7_70 - p1 + p7 >= 0
 R227: 388 x1,7_70 - p1 + p7 <= 458
 R228: - 103 x1,7_103 - p1 + p7 >= 0
 R229: 388 x1,7_103 - p1 + p7 <= 491
 R230: p2 - p3 <= -1
 R231: - 12 x2,3_12 - p2 + p3 >= 0
 R232: 388 x2,3_12 - p2 + p3 <= 400
 R233: - 47 x2,3_47 - p2 + p3 >= 0
 R234: 388 x2,3_47 - p2 + p3 <= 435
 R235: - 48 x2,3_48 - p2 + p3 >= 0
 R236: 388 x2,3_48 - p2 + p3 <= 436
 R237: - 52 x2,3_52 - p2 + p3 >= 0
 R238: 388 x2,3_52 - p2 + p3 <= 440
 R239: - 56 x2,3_56 - p2 + p3 >= 0
 R240: 388 x2,3_56 - p2 + p3 <= 444
 R241: - 70 x2,3_70 - p2 + p3 >= 0
 R242: 388 x2,3_70 - p2 + p3 <= 458
 R243: - 103 x2,3_103 - p2 + p3 >= 0
 R244: 388 x2,3_103 - p2 + p3 <= 491
 R245: p2 - p4 <= -1
 R246: - 12 x2,4_12 - p2 + p4 >= 0
 R247: 388 x2,4_12 - p2 + p4 <= 400
 R248: - 47 x2,4_47 - p2 + p4 >= 0
 R249: 388 x2,4_47 - p2 + p4 <= 435
 R250: - 48 x2,4_48 - p2 + p4 >= 0
 R251: 388 x2,4_48 - p2 + p4 <= 436
 R252: - 52 x2,4_52 - p2 + p4 >= 0
 R253: 388 x2,4_52 - p2 + p4 <= 440
 R254: - 56 x2,4_56 - p2 + p4 >= 0
 R255: 388 x2,4_56 - p2 + p4 <= 444
 R256: - 70 x2,4_70 - p2 + p4 >= 0
 R257: 388 x2,4_70 - p2 + p4 <= 458
 R258: - 103 x2,4_103 - p2 + p4 >= 0
 R259: 388 x2,4_103 - p2 + p4 <= 491
 R260: p2 - p5 <= -1
 R261: - 12 x2,5_12 - p2 + p5 >= 0
 R262: 388 x2,5_12 - p2 + p5 <= 400
 R263: - 47 x2,5_47 - p2 + p5 >= 0
 R264: 388 x2,5_47 - p2 + p5 <= 435
 R265: - 48 x2,5_48 - p2 + p5 >= 0
 R266: 388 x2,5_48 - p2 + p5 <= 436
 R267: - 52 x2,5_52 - p2 + p5 >= 0
 R268: 388 x2,5_52 - p2 + p5 <= 440
 R269: - 56 x2,5_56 - p2 + p5 >= 0
 R270: 388 x2,5_56 - p2 + p5 <= 444
 R271: - 70 x2,5_70 - p2 + p5 >= 0
 R272: 388 x2,5_70 - p2 + p5 <= 458
 R273: - 103 x2,5_103 - p2 + p5 >= 0
 R274: 388 x2,5_103 - p2 + p5 <= 491
 R275: p2 - p6 <= -1
 R276: - 12 x2,6_12 - p2 + p6 >= 0
 R277: 388 x2,6_12 - p2 + p6 <= 400
 R278: - 47 x2,6_47 - p2 + p6 >= 0
 R279: 388 x2,6_47 - p2 + p6 <= 435
 R280: - 48 x2,6_48 - p2 + p6 >= 0
 R281: 388 x2,6_48 - p2 + p6 <= 436
 R282: - 52 x2,6_52 - p2 + p6 >= 0
 R283: 388 x2,6_52 - p2 + p6 <= 440
 R284: - 56 x2,6_56 - p2 + p6 >= 0
 R285: 388 x2,6_56 - p2 + p6 <= 444
 R286: - 70 x2,6_70 - p2 + p6 >= 0
 R287: 388 x2,6_70 - p2 + p6 <= 458
 R288: - 103 x2,6_103 - p2 + p6 >= 0
 R289: 388 x2,6_103 - p2 + p6 <= 491
 R290: p2 - p7 <= -1
 R291: - 12 x2,7_12 - p2 + p7 >= 0
 R292: 388 x2,7_12 - p2 + p7 <= 400
 R293: - 47 x2,7_47 - p2 + p7 >= 0
 R294: 388 x2,7_47 - p2 + p7 <= 435
 R295: - 48 x2,7_48 - p2 + p7 >= 0
 R296: 388 x2,7_48 - p2 + p7 <= 436
 R297: - 52 x2,7_52 - p2 + p7 >= 0
 R298: 388 x2,7_52 - p2 + p7 <= 440
 R299: - 56 x2,7_56 - p2 + p7 >= 0
 R300: 388 x2,7_56 - p2 + p7 <= 444
 R301: - 70 x2,7_70 - p2 + p7 >= 0
 R302: 388 x2,7_70 - p2 + p7 <= 458
 R303: - 103 x2,7_103 - p2 + p7 >= 0
 R304: 388 x2,7_103 - p2 + p7 <= 491
 R305: p3 - p4 <= -1
 R306: - 12 x3,4_12 - p3 + p4 >= 0
 R307: 388 x3,4_12 - p3 + p4 <= 400
 R308: - 47 x3,4_47 - p3 + p4 >= 0
 R309: 388 x3,4_47 - p3 + p4 <= 435
 R310: - 48 x3,4_48 - p3 + p4 >= 0
 R311: 388 x3,4_48 - p3 + p4 <= 436
 R312: - 52 x3,4_52 - p3 + p4 >= 0
 R313: 388 x3,4_52 - p3 + p4 <= 440
 R314: - 56 x3,4_56 - p3 + p4 >= 0
 R315: 388 x3,4_56 - p3 + p4 <= 444
 R316: - 70 x3,4_70 - p3 + p4 >= 0
 R317: 388 x3,4_70 - p3 + p4 <= 458
 R318: - 103 x3,4_103 - p3 + p4 >= 0
 R319: 388 x3,4_103 - p3 + p4 <= 491
 R320: p3 - p5 <= -1
 R321: - 12 x3,5_12 - p3 + p5 >= 0
 R322: 388 x3,5_12 - p3 + p5 <= 400
 R323: - 47 x3,5_47 - p3 + p5 >= 0
 R324: 388 x3,5_47 - p3 + p5 <= 435
 R325: - 48 x3,5_48 - p3 + p5 >= 0
 R326: 388 x3,5_48 - p3 + p5 <= 436
 R327: - 52 x3,5_52 - p3 + p5 >= 0
 R328: 388 x3,5_52 - p3 + p5 <= 440
 R329: - 56 x3,5_56 - p3 + p5 >= 0
 R330: 388 x3,5_56 - p3 + p5 <= 444
 R331: - 70 x3,5_70 - p3 + p5 >= 0
 R332: 388 x3,5_70 - p3 + p5 <= 458
 R333: - 103 x3,5_103 - p3 + p5 >= 0
 R334: 388 x3,5_103 - p3 + p5 <= 491
 R335: p3 - p6 <= -1
 R336: - 12 x3,6_12 - p3 + p6 >= 0
 R337: 388 x3,6_12 - p3 + p6 <= 400
 R338: - 47 x3,6_47 - p3 + p6 >= 0
 R339: 388 x3,6_47 - p3 + p6 <= 435
 R340: - 48 x3,6_48 - p3 + p6 >= 0
 R341: 388 x3,6_48 - p3 + p6 <= 436
 R342: - 52 x3,6_52 - p3 + p6 >= 0
 R343: 388 x3,6_52 - p3 + p6 <= 440
 R344: - 56 x3,6_56 - p3 + p6 >= 0
 R345: 388 x3,6_56 - p3 + p6 <= 444
 R346: - 70 x3,6_70 - p3 + p6 >= 0
 R347: 388 x3,6_70 - p3 + p6 <= 458
 R348: - 103 x3,6_103 - p3 + p6 >= 0
 R349: 388 x3,6_103 - p3 + p6 <= 491
 R350: p3 - p7 <= -1
 R351: - 12 x3,7_12 - p3 + p7 >= 0
 R352: 388 x3,7_12 - p3 + p7 <= 400
 R353: - 47 x3,7_47 - p3 + p7 >= 0
 R354: 388 x3,7_47 - p3 + p7 <= 435
 R355: - 48 x3,7_48 - p3 + p7 >= 0
 R356: 388 x3,7_48 - p3 + p7 <= 436
 R357: - 52 x3,7_52 - p3 + p7 >= 0
 R358: 388 x3,7_52 - p3 + p7 <= 440
 R359: - 56 x3,7_56 - p3 + p7 >= 0
 R360: 388 x3,7_56 - p3 + p7 <= 444
 R361: - 70 x3,7_70 - p3 + p7 >= 0
 R362: 388 x3,7_70 - p3 + p7 <= 458
 R363: - 103 x3,7_103 - p3 + p7 >= 0
 R364: 388 x3,7_103 - p3 + p7 <= 491
 R365: p4 - p5 <= -1
 R366: - 12 x4,5_12 - p4 + p5 >= 0
 R367: 388 x4,5_12 - p4 + p5 <= 400
 R368: - 47 x4,5_47 - p4 + p5 >= 0
 R369: 388 x4,5_47 - p4 + p5 <= 435
 R370: - 48 x4,5_48 - p4 + p5 >= 0
 R371: 388 x4,5_48 - p4 + p5 <= 436
 R372: - 52 x4,5_52 - p4 + p5 >= 0
 R373: 388 x4,5_52 - p4 + p5 <= 440
 R374: - 56 x4,5_56 - p4 + p5 >= 0
 R375: 388 x4,5_56 - p4 + p5 <= 444
 R376: - 70 x4,5_70 - p4 + p5 >= 0
 R377: 388 x4,5_70 - p4 + p5 <= 458
 R378: - 103 x4,5_103 - p4 + p5 >= 0
 R379: 388 x4,5_103 - p4 + p5 <= 491
 R380: p4 - p6 <= -1
 R381: - 12 x4,6_12 - p4 + p6 >= 0
 R382: 388 x4,6_12 - p4 + p6 <= 400
 R383: - 47 x4,6_47 - p4 + p6 >= 0
 R384: 388 x4,6_47 - p4 + p6 <= 435
 R385: - 48 x4,6_48 - p4 + p6 >= 0
 R386: 388 x4,6_48 - p4 + p6 <= 436
 R387: - 52 x4,6_52 - p4 + p6 >= 0
 R388: 388 x4,6_52 - p4 + p6 <= 440
 R389: - 56 x4,6_56 - p4 + p6 >= 0
 R390: 388 x4,6_56 - p4 + p6 <= 444
 R391: - 70 x4,6_70 - p4 + p6 >= 0
 R392: 388 x4,6_70 - p4 + p6 <= 458
 R393: - 103 x4,6_103 - p4 + p6 >= 0
 R394: 388 x4,6_103 - p4 + p6 <= 491
 R395: p4 - p7 <= -1
 R396: - 12 x4,7_12 - p4 + p7 >= 0
 R397: 388 x4,7_12 - p4 + p7 <= 400
 R398: - 47 x4,7_47 - p4 + p7 >= 0
 R399: 388 x4,7_47 - p4 + p7 <= 435
 R400: - 48 x4,7_48 - p4 + p7 >= 0
 R401: 388 x4,7_48 - p4 + p7 <= 436
 R402: - 52 x4,7_52 - p4 + p7 >= 0
 R403: 388 x4,7_52 - p4 + p7 <= 440
 R404: - 56 x4,7_56 - p4 + p7 >= 0
 R405: 388 x4,7_56 - p4 + p7 <= 444
 R406: - 70 x4,7_70 - p4 + p7 >= 0
 R407: 388 x4,7_70 - p4 + p7 <= 458
 R408: - 103 x4,7_103 - p4 + p7 >= 0
 R409: 388 x4,7_103 - p4 + p7 <= 491
 R410: p5 - p6 <= -1
 R411: - 12 x5,6_12 - p5 + p6 >= 0
 R412: 388 x5,6_12 - p5 + p6 <= 400
 R413: - 47 x5,6_47 - p5 + p6 >= 0
 R414: 388 x5,6_47 - p5 + p6 <= 435
 R415: - 48 x5,6_48 - p5 + p6 >= 0
 R416: 388 x5,6_48 - p5 + p6 <= 436
 R417: - 52 x5,6_52 - p5 + p6 >= 0
 R418: 388 x5,6_52 - p5 + p6 <= 440
 R419: - 56 x5,6_56 - p5 + p6 >= 0
 R420: 388 x5,6_56 - p5 + p6 <= 444
 R421: - 70 x5,6_70 - p5 + p6 >= 0
 R422: 388 x5,6_70 - p5 + p6 <= 458
 R423: - 103 x5,6_103 - p5 + p6 >= 0
 R424: 388 x5,6_103 - p5 + p6 <= 491
 R425: p5 - p7 <= -1
 R426: - 12 x5,7_12 - p5 + p7 >= 0
 R427: 388 x5,7_12 - p5 + p7 <= 400
 R428: - 47 x5,7_47 - p5 + p7 >= 0
 R429: 388 x5,7_47 - p5 + p7 <= 435
 R430: - 48 x5,7_48 - p5 + p7 >= 0
 R431: 388 x5,7_48 - p5 + p7 <= 436
 R432: - 52 x5,7_52 - p5 + p7 >= 0
 R433: 388 x5,7_52 - p5 + p7 <= 440
 R434: - 56 x5,7_56 - p5 + p7 >= 0
 R435: 388 x5,7_56 - p5 + p7 <= 444
 R436: - 70 x5,7_70 - p5 + p7 >= 0
 R437: 388 x5,7_70 - p5 + p7 <= 458
 R438: - 103 x5,7_103 - p5 + p7 >= 0
 R439: 388 x5,7_103 - p5 + p7 <= 491
 R440: p6 - p7 <= -1
 R441: - 12 x6,7_12 - p6 + p7 >= 0
 R442: 388 x6,7_12 - p6 + p7 <= 400
 R443: - 47 x6,7_47 - p6 + p7 >= 0
 R444: 388 x6,7_47 - p6 + p7 <= 435
 R445: - 48 x6,7_48 - p6 + p7 >= 0
 R446: 388 x6,7_48 - p6 + p7 <= 436
 R447: - 52 x6,7_52 - p6 + p7 >= 0
 R448: 388 x6,7_52 - p6 + p7 <= 440
 R449: - 56 x6,7_56 - p6 + p7 >= 0
 R450: 388 x6,7_56 - p6 + p7 <= 444
 R451: - 70 x6,7_70 - p6 + p7 >= 0
 R452: 388 x6,7_70 - p6 + p7 <= 458
 R453: - 103 x6,7_103 - p6 + p7 >= 0
 R454: 388 x6,7_103 - p6 + p7 <= 491
 R455: z0 - z1 >= 0
 R456: z1 - z2 >= 0
 R457: z2 - z3 >= 0
 R458: z3 - z4 >= 0
 R459: z4 - z5 >= 0
 R460: z5 - z6 >= 0
 R461: z6 - z7 >= 0
Bounds
Binaries
 x0,1_12 x0,1_47 x0,1_48 x0,1_52 x0,1_56 x0,1_70 x0,1_103 x0,2_12 x0,2_47
 x0,2_48 x0,2_52 x0,2_56 x0,2_70 x0,2_103 x0,3_12 x0,3_47 x0,3_48 x0,3_52
 x0,3_56 x0,3_70 x0,3_103 x0,4_12 x0,4_47 x0,4_48 x0,4_52 x0,4_56 x0,4_70
 x0,4_103 x0,5_12 x0,5_47 x0,5_48 x0,5_52 x0,5_56 x0,5_70 x0,5_103 x0,6_12
 x0,6_47 x0,6_48 x0,6_52 x0,6_56 x0,6_70 x0,6_103 x0,7_12 x0,7_47 x0,7_48
 x0,7_52 x0,7_56 x0,7_70 x0,7_103 x1,2_12 x1,2_47 x1,2_48 x1,2_52 x1,2_56
 x1,2_70 x1,2_103 x1,3_12 x1,3_47 x1,3_48 x1,3_52 x1,3_56 x1,3_70 x1,3_103
 x1,4_12 x1,4_47 x1,4_48 x1,4_52 x1,4_56 x1,4_70 x1,4_103 x1,5_12 x1,5_47
 x1,5_48 x1,5_52 x1,5_56 x1,5_70 x1,5_103 x1,6_12 x1,6_47 x1,6_48 x1,6_52
 x1,6_56 x1,6_70 x1,6_103 x1,7_12 x1,7_47 x1,7_48 x1,7_52 x1,7_56 x1,7_70
 x1,7_103 x2,3_12 x2,3_47 x2,3_48 x2,3_52 x2,3_56 x2,3_70 x2,3_103 x2,4_12
 x2,4_47 x2,4_48 x2,4_52 x2,4_56 x2,4_70 x2,4_103 x2,5_12 x2,5_47 x2,5_48
 x2,5_52 x2,5_56 x2,5_70 x2,5_103 x2,6_12 x2,6_47 x2,6_48 x2,6_52 x2,6_56
 x2,6_70 x2,6_103 x2,7_12 x2,7_47 x2,7_48 x2,7_52 x2,7_56 x2,7_70 x2,7_103
 x3,4_12 x3,4_47 x3,4_48 x3,4_52 x3,4_56 x3,4_70 x3,4_103 x3,5_12 x3,5_47
 x3,5_48 x3,5_52 x3,5_56 x3,5_70 x3,5_103 x3,6_12 x3,6_47 x3,6_48 x3,6_52
 x3,6_56 x3,6_70 x3,6_103 x3,7_12 x3,7_47 x3,7_48 x3,7_52 x3,7_56 x3,7_70
 x3,7_103 x4,5_12 x4,5_47 x4,5_48 x4,5_52 x4,5_56 x4,5_70 x4,5_103 x4,6_12
 x4,6_47 x4,6_48 x4,6_52 x4,6_56 x4,6_70 x4,6_103 x4,7_12 x4,7_47 x4,7_48
 x4,7_52 x4,7_56 x4,7_70 x4,7_103 x5,6_12 x5,6_47 x5,6_48 x5,6_52 x5,6_56
 x5,6_70 x5,6_103 x5,7_12 x5,7_47 x5,7_48 x5,7_52 x5,7_56 x5,7_70 x5,7_103
 x6,7_12 x6,7_47 x6,7_48 x6,7_52 x6,7_56 x6,7_70 x6,7_103 z0 z1 z2 z3 z4 z5
 z6 z7
Generals
 p0 p1 p2 p3 p4 p5 p6 p7
End
